&BANDS
    prefix="Ta"
    outdir="/scratch/as3359/Ta2C_bandsdos/"
    filband="Ta2C.Bandx.dat"
/
