 &control
    calculation='scf'
    restart_mode='from_scratch',
    prefix='Ta',
    tstress = .true.
    tprnfor = .true.
    pseudo_dir = '/shared/home/as3359/pseudo/',
    outdir='/scratch/as3359/Ta3C2O_loop/'
    max_seconds = 28800
 /
 &system    
    ibrav= 0, 
    celldm(1)= 5.550,
     nat=  6, ntyp= 3,  
    ecutwfc = 70.00,
    ecutrho = 700.00,
    occupations='smearing',
    smearing='m-v', 
    degauss=0.001,
 /
 &electrons
    mixing_mode = 'plain'
    mixing_beta = 0.7
    conv_thr =  1.0d-12
 /
CELL_PARAMETERS (alat)
   1.040049433  -0.000000962   0.000000000
  -0.520025553   0.900713953   0.000000000
   0.000000000   0.000000000  10.000000000
ATOMIC_SPECIES
 Ta 180.94788  Ta.pbesol-spfn-rrkjus_psl.1.0.0.UPF
 C   12.0107   C.pbesol-n-rrkjus_psl.1.0.0.UPF
 O   15.9994  O.pbesol-n-rrkjus_psl.1.0.0.UPF
ATOMIC_POSITIONS (alat)
Ta            0.0000088000        0.6004957000        0.6856589000
C             0.0000053000        0.0000108000        1.0955604000
Ta            0.5200282000        0.3002450000        1.5454419000
C            -0.0000001000        0.6004764000        1.9848084000
Ta           -0.0000085000       -0.0000192000        2.4469301000
O            -0.0000110000        0.6004554000        2.8325448000
K_POINTS {automatic}
12 12 1 0 0 0
