 &control
    calculation='vc-relax'
    restart_mode='from_scratch',
    prefix='Ta',
    tstress = .true.
    tprnfor = .true.
    forc_conv_thr=1.0d-3,
    etot_conv_thr=1.0d-4,
    pseudo_dir = '/shared/home/as3359/pseudo/',
    outdir='/scratch/as3359/Ta3C2O_loop/'
    max_seconds = 56600
 /
 &system
    ibrav= 0, 
    celldm(1)= 5.550,
    nat=  6, ntyp= 3,   
    ecutwfc =70.00,
    ecutrho = 700.00,
    occupations='smearing',
    smearing='m-v', 
    degauss=0.001,
 /
 &electrons
    mixing_mode = 'plain'
    mixing_beta = 0.7
    conv_thr =  1.0d-12
 /
 &ions
    ion_dynamics='bfgs'
 /
 &cell
    cell_dynamics='bfgs', cell_dofree ='2Dxy'
 /
ATOMIC_SPECIES
 Ta 180.94788  Ta.pbesol-spfn-rrkjus_psl.1.0.0.UPF
 C   12.0107   C.pbesol-n-rrkjus_psl.1.0.0.UPF
 O   15.9994  O.pbesol-n-rrkjus_psl.1.0.0.UPF
ATOMIC_POSITIONS (crystal)
 Ta            0.333333333   0.666666667   0.049085206 1 1 1 
 C             0.000000000   0.000000000   0.094635528 1 1 1 
 Ta            0.666666667   0.333333333   0.147818939 1 1 1 
 C             0.333333333   0.666666667   0.201002305 1 1 1 
 Ta            0.000000000   0.000000000   0.246552466 1 1 1 
 O             0.333333333   0.666666667   0.320000000  1 1 1 
K_POINTS {automatic}
 12 12 1 0 0 0 
CELL_PARAMETERS (alat= 5.550)
 1.023061336   0.000070588   0.000000000 
 -0.511469537   0.885657589   0.000000000
 0.000000000   0.000000000  10.000000000 
