 &control
    calculation='scf'
    restart_mode='restart',
    prefix='MoS2',
    tstress = .true.
    tprnfor = .true.
    pseudo_dir = '/shared/home/as3359/pseudo/',
    outdir='/scratch/as3359/Ta2C_ct_kpts/'
    max_seconds = 7200
 /
 &system
    ibrav= 0, 
    celldm(1)= 6.072,
    nat=  3, ntyp= 2,   
    ecutwfc = 200,
    ecutrho = 1000,
 /
 &electrons
    mixing_mode = 'plain'
    mixing_beta = 0.7
    conv_thr =  1.0d-12
 /
 &ions
    ion_dynamics='bfgs'
 /
 &cell
    cell_dynamics='bfgs'
 /
CELL_PARAMETERS (alat)
   0.976383887  -0.000017274   0.000000000
  -0.487931186   0.846186578   0.000000000
   0.000000000   0.000000000   5.000000000 
ATOMIC_SPECIES
 Mo  95.94  Mo.pbesol-spn-kjpaw_psl.1.0.0.UPF
 S   32.065    S.pbesol-nl-kjpaw_psl.1.0.0.UPF 
ATOMIC_POSITIONS (alat)
Mo            0.0000000000        0.0000000000        1.6880765000
S             0.4883508000        0.2821722000        2.1737857000
S             0.4883508000        0.2821722000        1.2023670000
K_POINTS {automatic}
 14 14 1 0 0 0 
