 &control
    calculation='scf'
    restart_mode='from_scratch',
    prefix='Ta',
    tstress = .true.
    tprnfor = .true.
    pseudo_dir = '/shared/home/as3359/pseudo/',
    outdir='/scratch/as3359/Ta2CO_loop/'
    max_seconds = 28800
 /
 &system    
    ibrav= 0, 
    celldm(1)= 5.550,
     nat=  4, ntyp= 3,  
    ecutwfc = 70.00,
    ecutrho = 700.00,
    occupations='smearing',
    smearing='m-v', 
    degauss=0.001,
 /
 &electrons
    mixing_mode = 'plain'
    mixing_beta = 0.7
    conv_thr =  1.0d-12
 /
CELL_PARAMETERS (alat)
   1.047457526  -0.003042052   0.000000000
  -0.525368498   0.905720514   0.000000000
   0.000000000   0.000000000  10.000000000
ATOMIC_SPECIES
 Ta 180.94788  Ta.pbesol-spfn-rrkjus_psl.1.0.0.UPF
 C   12.0107   C.pbesol-n-rrkjus_psl.1.0.0.UPF
 O   15.9994  O.pbesol-n-rrkjus_psl.1.0.0.UPF
ATOMIC_POSITIONS (alat)
C             0.0000000000        0.0000000000        0.0000000000
Ta            0.5237441000        0.2989654000       -0.4007024000
Ta           -0.0010323000        0.6027030000        0.4306046000
O             0.5210222000        0.3011869000        0.8013113000
K_POINTS {automatic}
12 12 1 0 0 0
