 &control
    calculation='nscf'
    restart_mode='from_scratch',
    prefix='Ta',
    tstress = .true.
    tprnfor = .true.
    forc_conv_thr=1.0d-3,
    etot_conv_thr=1.0d-4,
    pseudo_dir = '/shared/home/as3359/pseudo/',
    outdir='/scratch/as3359/Ta2C_dos/'
    max_seconds = 28800
 /
 &system
    ibrav= 0, 
    celldm(1)= 5.550,
    nat=  3, ntyp= 2,   
    ecutwfc = 150.00,
    ecutrho = 450.00,
    occupations='tetrahedra',
    nosym=.TRUE.,
 /
 &electrons
    mixing_mode = 'plain'
    mixing_beta = 0.7
    conv_thr =  1.0d-12
 /
ATOMIC_SPECIES
 Ta 180.94788  Ta.pbesol-spfn-rrkjus_psl.1.0.0.UPF
 C   12.0107   C.pbesol-n-rrkjus_psl.1.0.0.UPF
ATOMIC_POSITIONS (alat)
 C            0.0000000000        0.0000000000        0.0000000000 0 0 0
 Ta           0.5202621000        0.3003735000       -0.4102757000 1 1 1
 Ta           0.0000000000        0.6007470000        0.4102757000 1 1 1
K_POINTS {automatic}
 15 15 1 0 0 0 
CELL_PARAMETERS (alat= 5.550)
 1.040524263   0.000000000   0.000000000
 -0.520262131   0.901120444   0.000000000
 0.000000000   0.000000000  10.000000000
