 &control
    calculation='scf'
    restart_mode='from_scratch',
    prefix='Ta',
    tstress = .true.
    tprnfor = .true.
    pseudo_dir = '/shared/home/as3359/pseudo/',
    outdir='/scratch/as3359/Ta4C3_loop/'
    max_seconds = 28800
 /
 &system
    ibrav= 0,
    celldm(1)= 5.550,
     nat=  7, ntyp= 2,
    ecutwfc = 60.00,
    ecutrho = 400.00,
    occupations='smearing',
    smearing='m-v',
    degauss=0.001,
 /
 &electrons
    mixing_mode = 'plain'
    mixing_beta = 0.7
    conv_thr =  1.0d-12
 /
CELL_PARAMETERS (alat)
   1.049723137  -0.000000690   0.000000000
  -0.524862166   0.909090000   0.000000000
   0.000000000   0.000000000   6.000000000
ATOMIC_SPECIES
 Ta 180.94788  Ta.pbesol-spfn-rrkjus_psl.1.0.0.UPF
 C   12.0107   C.pbesol-n-rrkjus_psl.1.0.0.UPF
 O   15.9994  O.pbesol-n-rrkjus_psl.1.0.0.UPF
ATOMIC_POSITIONS (alat)

K_POINTS {automatic}
12 12 1 0 0 0
