 &control
    calculation='vc-relax'
    restart_mode='from_scratch',
    prefix='Ta',
    tstress = .true.
    tprnfor = .true.
    forc_conv_thr=1.0d-3,
    etot_conv_thr=1.0d-4,
    pseudo_dir = '/shared/home/as3359/pseudo/',
    outdir='/scratch/as3359/Ta2CF2_loop/'
    max_seconds = 56600
 /
 &system
    ibrav= 0, 
    celldm(1)= 5.8997,
    nat=  5, ntyp= 3,   
    ecutwfc =60.00,
    ecutrho = 300.00
   occupations='smearing',
    smearing='m-v', 
    degauss=0.005,
 /
 &electrons
    mixing_mode = 'plain'
    mixing_beta = 0.7
    conv_thr =  1.0d-12
    diagonalization = 'cg'
 /
 &ions
    ion_dynamics='bfgs'
 /
 &cell
    cell_dynamics='bfgs', cell_dofree ='2Dxy'
 /
ATOMIC_SPECIES
 Ta 180.94788  Ta.pbesol-spfn-rrkjus_psl.1.0.0.UPF
 C   12.0107   C.pbesol-n-rrkjus_psl.1.0.0.UPF
 F   18.9984  F.pbesol-n-rrkjus_psl.1.0.0.UPF
ATOMIC_POSITIONS (crystal)
 Ta       0.3333333330        0.6666666670        0.0084777904   1   1   1
 C        0.0000000000        0.0000000000        0.0809653684   1   1   1
 Ta       0.6666666670        0.3333333330        0.1534684720   1   1   1
 F        0.0000000000        0.0000000000        0.2293479205   1   1   1
 F        0.6666666670        0.3333333330       -0.0673918107   1   1   1
K_POINTS {automatic}
 12 12 1 0 0 0 
CELL_PARAMETERS (alat= 5.8997)
 0.946100374   0.000000000   0.000000000
 -0.473050186   0.819346959   0.000000000
 0.000000000   0.000000000   6.000000000
