 &control
    calculation='vc-relax'
    restart_mode='from_scratch',
    prefix='Ta',
    tstress = .true.
    tprnfor = .true.
    forc_conv_thr=1.0d-3,
    etot_conv_thr=1.0d-4,
    pseudo_dir = '/shared/home/as3359/pseudo/',
    outdir='/scratch/as3359/Ta2CF2_loop/'
    max_seconds = 28800
 /
 &system    
    ibrav= 0, 
    celldm(1)= 5.8997,
    nat=  5, ntyp= 3,    
    ecutwfc = 60.00,
    ecutrho = 300.00,
 /
 &electrons
    mixing_mode = 'plain'
    mixing_beta = 0.7
    conv_thr =  1.0d-12
 /
 &ions
    ion_dynamics='bfgs',
 /
&cell
    cell_dynamics='bfgs', cell_dofree='2Dxy'
 /
CELL_PARAMETERS { alat }
   0.957455708  -0.000000000   0.000000000
  -0.478727853   0.829180967   0.000000000
   0.000000000   0.000000000   6.000000000
ATOMIC_SPECIES
 Ta 180.94788  Ta.pbesol-spfn-rrkjus_psl.1.0.0.UPF
 C   12.0107   C.pbesol-n-rrkjus_psl.1.0.0.UPF
 F   18.9984  F.pbesol-n-rrkjus_psl.1.0.0.UPF
ATOMIC_POSITIONS (alat)
Ta           -0.0000000000        0.5527873000        0.0709378424
C             0.0000000000        0.0000000000        0.5007947589
Ta            0.4787279000        0.2763937000        0.8898037770
F             0.0000000000        0.0000000000        1.3627962815
F             0.4787279000        0.2763937000       -0.3951261597
K_POINTS {automatic}
 12 12 1 0 0 0
