 &control
    calculation='scf'
    restart_mode='from_scratch',
    prefix='Ta',
    tstress = .true.
    tprnfor = .true.
    pseudo_dir = '/shared/home/as3359/pseudo/',
    outdir='/scratch/as3359/Ta3C2H_loop/'
    max_seconds = 28800
 /
 &system    
    ibrav= 0, 
    celldm(1)= 5.550,
     nat=  6, ntyp= 3,  
    ecutwfc = 60.00,
    ecutrho = 300.00,
    occupations='smearing',
    smearing='m-v', 
    degauss=0.001,
 /
 &electrons
    mixing_mode = 'plain'
    mixing_beta = 0.7
    conv_thr =  1.0d-12
 /
CELL_PARAMETERS (alat)
   1.038018132  -0.000083954   0.000000000
  -0.519020068   0.899170346   0.000000000
   0.000000000   0.000000000  10.000000000
ATOMIC_SPECIES
 Ta 180.94788  Ta.pbesol-spfn-rrkjus_psl.1.0.0.UPF
 C   12.0107   C.pbesol-n-rrkjus_psl.1.0.0.UPF
 H    1.000   H.pbesol-rrkjus_psl.0.1.UPF
ATOMIC_POSITIONS (alat)

K_POINTS {automatic}
15 15 1 0 0 0
