&BANDS
    prefix="Ta"
    outdir="/scratch/as3359/Ta2CH2k_bandsdos/"
    filband="Ta2CH2.Bandx.dat"
/
