 &control
    calculation='vc-relax'
    restart_mode='from_scratch',
    prefix='Ta',
    tstress = .true.
    tprnfor = .true.
    forc_conv_thr=1.0d-3,
    etot_conv_thr=1.0d-4,
    pseudo_dir = '/shared/home/as3359/pseudo/',
    outdir='/scratch/as3359/Ta4C3_loop/'
    max_seconds = 56600
 /
 &system
    ibrav= 0, 
    celldm(1)= 5.550,
    nat=  7, ntyp= 2,   
    ecutwfc =60.00,
    ecutrho = 400.00,
    occupations='smearing',
    smearing='m-v', 
    degauss=0.001,
 /
 &electrons
    mixing_mode = 'plain'
    mixing_beta = 0.7
    conv_thr =  1.0d-12
    diagonalization = 'cg'
 /
 &ions
    ion_dynamics='bfgs'
 /
 &cell
    cell_dynamics='bfgs', cell_dofree ='2Dxy'
 /
ATOMIC_SPECIES
 Ta 180.94788  Ta.pbesol-spfn-rrkjus_psl.1.0.0.UPF
 C   12.0107   C.pbesol-n-rrkjus_psl.1.0.0.UPF
ATOMIC_POSITIONS (crystal)
 Ta            0.3333310091        0.6666639694       -0.0269029980 1 1 1 
 C            -0.0000006861       -0.0000007950        0.0391217521 1 1 1 
 Ta            0.6666676137        0.3333344308        0.0929114019 1 1 1 
 C             0.3333327732        0.6666660249        0.1784924085 1 1 1 
 Ta           -0.0000007727       -0.0000008897        0.2539695769 1 1 1 
 C             0.6666677659        0.3333346028        0.3477411373 1 1 1 
 Ta            0.3333356300        0.6666693238        0.4237611653 1 1 1 
K_POINTS {automatic}
 12 12 1 0 0 0 
CELL_PARAMETERS (alat= 5.550)
 1.182549010   0.000005488   0.000000000 
 -0.591269752   1.024091997   0.000000000
 0.000000000   0.000000000  6.000000000 
