 &control
    calculation='vc-relax'
    restart_mode='from_scratch',
    prefix='Ta',
    tstress = .true.
    tprnfor = .true.
    forc_conv_thr=1.0d-3,
    etot_conv_thr=1.0d-4,
    pseudo_dir = '/shared/home/as3359/pseudo/',
    outdir='/scratch/as3359/Ta4C3_loop/'
    max_seconds = 56600
 /
 &system
    ibrav= 0, 
    celldm(1)= 5.550,
    nat=  7, ntyp= 2,   
    ecutwfc =60.00,
    ecutrho = 300.00,
    occupations='smearing',
    smearing='m-v', 
    degauss=0.005,
 /
 &electrons
    mixing_mode = 'plain'
    mixing_beta = 0.7
    conv_thr =  1.0d-12
    diagonalization = 'cg'
 /
 &ions
    ion_dynamics='bfgs'
 /
 &cell
    cell_dynamics='bfgs', cell_dofree ='2Dxy'
 /
ATOMIC_SPECIES
 Ta 180.94788  Ta.pbesol-spfn-rrkjus_psl.1.0.0.UPF
 C   12.0107   C.pbesol-n-rrkjus_psl.1.0.0.UPF
ATOMIC_POSITIONS (crystal)
 Ta            0.3333327624        0.6666660003       -0.0282473143 1 1 1 
 C            -0.0000003331       -0.0000003858        0.0377582065 1 1 1 
 Ta            0.6666666943        0.3333333674        0.1115388299 1 1 1 
 C             0.3333335058        0.6666668642        0.1870122143 1 1 1 
 Ta            0.0000001824        0.0000002059        0.2625029763 1 1 1 
 C             0.6666669195        0.3333336265        0.3362499259 1 1 1 
 Ta            0.3333336019        0.6666669885        0.4022796053 1 1 1 
K_POINTS {automatic}
 12 12 1 0 0 0 
CELL_PARAMETERS (alat= 5.550)
 1.052119753  -0.000000171   0.000000000 
 -0.526060024   0.911163138   0.000000000
 0.000000000   0.000000000  6.000000000 
