 &control
    calculation='vc-relax'
    restart_mode='from_scratch',
    prefix='Ta',
    tstress = .true.
    tprnfor = .true.
    forc_conv_thr=1.0d-3,
    etot_conv_thr=1.0d-4,
    pseudo_dir = '/shared/home/as3359/pseudo/',
    outdir='/scratch/as3359/Ta4C3_loop/'
    max_seconds = 28800
 /
 &system    
    ibrav= 0, 
    celldm(1)= 5.550,
    nat=  7, ntyp= 2,    
    ecutwfc = 60.00,
    ecutrho = 300.00,
    occupations='smearing',
    smearing='m-v', 
    degauss=0.001,
 /
 &electrons
    mixing_mode = 'plain'
    mixing_beta = 0.7
    conv_thr =  1.0d-12
    diagonalization = 'cg'
 /
 &ions
    ion_dynamics='bfgs',
 /
&cell
    cell_dynamics='bfgs', cell_dofree='2Dxy'
 /
CELL_PARAMETERS { alat }
   1.050332890  -0.000000171   0.000000000
  -0.525166593   0.909615670   0.000000000
   0.000000000   0.000000000   6.000000000
ATOMIC_SPECIES
 Ta 180.94788  Ta.pbesol-spfn-rrkjus_psl.1.0.0.UPF
 C   12.0107   C.pbesol-n-rrkjus_psl.1.0.0.UPF
 
ATOMIC_POSITIONS (alat)
Ta            0.0000408956        0.6070318020       -0.1703335963
C             0.0002511341        0.0005928393        0.2265443638
Ta            0.5255276513        0.3037199489        0.6690179839
C             0.0002771084        0.6069602646        1.1221242715
Ta            0.0002681444        0.0004611417        1.5751488834
C             0.5254190326        0.3037991788        2.0175711117
Ta            0.0003354337        0.6072027247        2.4144936820
K_POINTS {automatic}
 12 12 1 0 0 0
