 &control
    calculation='relax'
    restart_mode='from_scratch',
    prefix='Ta',
    tstress = .true.
    tprnfor = .true.
    forc_conv_thr=1.0d-3,
    etot_conv_thr=1.0d-4,
    pseudo_dir = '/shared/home/as3359/pseudo/',
    outdir='/scratch/as3359/Ta4C3_loop/'
    max_seconds = 28800
 /
 &system
    ibrav= 0, 
    celldm(1)= 5.550,
    nat=  7, ntyp= 2,   
    ecutwfc = 60.00,
    ecutrho = 400.00,
    occupations='smearing',
    smearing='m-v', 
    degauss=0.001,
 /
 &electrons
    mixing_mode = 'plain'
    mixing_beta = 0.7
    conv_thr =  1.0d-12
    diagonalization = 'cg'
 /
 &ions
    ion_dynamics='bfgs'
 /
 &cell
    cell_dynamics='bfgs', cell_dofree ='2Dxy'
 /
ATOMIC_SPECIES
 Ta 180.94788  Ta.pbesol-spfn-rrkjus_psl.1.0.0.UPF
 C   12.0107   C.pbesol-n-rrkjus_psl.1.0.0.UPF
 
ATOMIC_POSITIONS (alat)
Ta -0.0000003 0.6074414 -0.1694839
C -0.0000001 -0.0000004 0.2265492
Ta 0.5260598 0.3037210 0.6692330
C -0.0000000 0.6074422 1.1220733
Ta 0.0000001 0.0000002 1.5750179
C 0.5260599 0.3037212 2.0174996
Ta 0.0000000 0.6074423 2.4136776
K_POINTS {automatic}
 12 12 1 0 0 0 
CELL_PARAMETERS { alat }
   1.052119753  -0.000000171   0.000000000
  -0.526060024   0.911163138   0.000000000
   0.000000000   0.000000000   6.000000000
