 &control
    calculation='vc-relax'
    restart_mode='from_scratch',
    prefix='Ta',
    tstress = .true.
    tprnfor = .true.
    forc_conv_thr=1.0d-3,
    etot_conv_thr=1.0d-4,
    pseudo_dir = '/shared/home/as3359/pseudo/',
    outdir='/scratch/as3359/Ta2CO2_loop/'
    max_seconds = 56600
 /
 &system
    ibrav= 0, 
    celldm(1)= 5.550,
    nat=  5, ntyp= 3,   
    ecutwfc =70.00,
    ecutrho = 700.00,
    occupations='smearing',
    smearing='m-v', 
    degauss=0.001,
 /
 &electrons
    mixing_mode = 'plain'
    mixing_beta = 0.7
    conv_thr =  1.0d-12
 /
 &ions
    ion_dynamics='bfgs'
 /
 &cell
    cell_dynamics='bfgs', cell_dofree ='2Dxy'
 /
ATOMIC_SPECIES
 Ta 180.94788  Ta.pbesol-spfn-rrkjus_psl.1.0.0.UPF
 C   12.0107   C.pbesol-n-rrkjus_psl.1.0.0.UPF
 O   15.9994  O.pbesol-n-rrkjus_psl.1.0.0.UPF
ATOMIC_POSITIONS (alat)
 C             -0.1376598854        0.0180187116        0.0193958690 0 0 0 
 Ta            0.3842018987        0.3193410737       -0.4303562032 1 1 1 
 Ta            -0.1377470232        0.6197474913        0.4271741029 1 1 1 
 O             0.3846711279        0.3199348687        0.8048844944 1 1 1 
 O             -0.1374755180        0.0184453546       -0.8210982632 1 1 1 
K_POINTS {automatic}
 12 12 1 0 0 0 
CELL_PARAMETERS (alat= 5.550)
 1.043732174   0.000891147   0.000000000 
 -0.521795130   0.901190007   0.000000000
 0.000000000   0.000000000  10.000000000 
