 &control
    calculation='relax'
    restart_mode='from_scratch',
    prefix='Ta',
    tstress = .true.
    tprnfor = .true.
    forc_conv_thr=1.0d-3,
    etot_conv_thr=1.0d-4,
    pseudo_dir = '/shared/home/as3359/pseudo/',
    outdir='/scratch/as3359/Ta2CO2_loop/'
    max_seconds = 28800
 /
 &system
    ibrav= 0, 
    celldm(1)= 5.550,
    nat=  5, ntyp= 3,   
    ecutwfc = 70.00,
    ecutrho = 700.00,
    occupations='smearing',
    smearing='m-v', 
    degauss=0.001,
 /
 &electrons
    mixing_mode = 'plain'
    mixing_beta = 0.7
    conv_thr =  1.0d-12
 /
 &ions
    ion_dynamics='bfgs'
 /
 &cell
    cell_dynamics='bfgs', cell_dofree ='2Dxy'
 /
ATOMIC_SPECIES
 Ta 180.94788  Ta.pbesol-spfn-rrkjus_psl.1.0.0.UPF
 C   12.0107   C.pbesol-n-rrkjus_psl.1.0.0.UPF
 O   15.9994  O.pbesol-n-rrkjus_psl.1.0.0.UPF
ATOMIC_POSITIONS (alat)
C -0.1376285 0.0180317 0.0193959
Ta 0.3841511 0.3192090 -0.4303689
Ta -0.1376464 0.6197159 0.4272142
O 0.3845753 0.3202170 0.8049305
O -0.1374362 0.0185582 -0.8211192
K_POINTS {automatic}
 12 12 1 0 0 0 
CELL_PARAMETERS { alat }
   1.043484737   0.000819003   0.000000000
  -0.521733898   0.901398720   0.000000000
   0.000000000   0.000000000  10.000000000
