 &control
    calculation='bands'
    restart_mode='from_scratch',
    prefix='Ta',
    tstress = .true.
    tprnfor = .true.
    forc_conv_thr=1.0d-3,
    etot_conv_thr=1.0d-4,
    pseudo_dir = '/shared/home/as3359/pseudo/',
    outdir='/scratch/as3359/Ta2C_bands/'
    max_seconds = 28800
 /
 &system
    ibrav= 0, 
    celldm(1)= 5.550,
    nat=  3, ntyp= 2, nbnd= 32,  
    ecutwfc = 150.00,
    ecutrho = 500.00,
 /
 &electrons
    mixing_mode = 'plain'
    mixing_beta = 0.7
    conv_thr =  1.0d-12
 /
ATOMIC_SPECIES
 Ta 180.94788  Ta.pbesol-spfn-rrkjus_psl.1.0.0.UPF
 C   12.0107   C.pbesol-n-rrkjus_psl.1.0.0.UPF
ATOMIC_POSITIONS (alat)

CELL_PARAMETERS { alat }

K_POINTS crystal_b
         4
        0.0000000000     0.0000000000     0.0000000000    20.0
        0.6666666667    -0.3333333333     0.0000000000    20.0
        0.5000000000    -0.5000000000     0.0000000000    20.0
        0.0000000000     0.0000000000     0.0000000000    1.0
