 &control
    calculation='scf'
    restart_mode='from_scratch',
    prefix='Ta',
    tstress = .true.
    tprnfor = .true.
    forc_conv_thr=1.0d-3,
    etot_conv_thr=1.0d-4,
    pseudo_dir = '/shared/home/as3359/pseudo/',
    outdir='/scratch/as3359/Ta2C_bands/'
    max_seconds = 56600
 /
 &system
    ibrav= 0, 
    celldm(1)= 5.550,
    nat=  3, ntyp= 2,   
    ecutwfc =150.00,
    ecutrho = 500.00,
 /
 &electrons
    mixing_mode = 'plain'
    mixing_beta = 0.7
    conv_thr =  1.0d-12
 /
 &ions
    ion_dynamics='bfgs'
 /
ATOMIC_SPECIES
 Ta 180.94788  Ta.pbesol-spfn-rrkjus_psl.1.0.0.UPF
 C   12.0107   C.pbesol-n-rrkjus_psl.1.0.0.UPF
ATOMIC_POSITIONS (alat)
 C             0.0000000000        0.0000000000        0.0000000000
 Ta            0.5175488000        0.3007354000       -0.4118949000
 Ta            0.0008549000        0.5988783000        0.4118273000
K_POINTS {automatic}
 15 15 1 0 0 0 
CELL_PARAMETERS (alat= 5.550)
 1.034755042   0.000331894   0.000000000
 -0.516415224   0.899222826   0.000000000
 0.000000000   0.000000000  10.000000000
