 &control
    calculation='relax'
    restart_mode='from_scratch',
    prefix='Ta',
    tstress = .true.
    tprnfor = .true.
    forc_conv_thr=1.0d-3,
    etot_conv_thr=1.0d-4,
    pseudo_dir = '/shared/home/as3359/pseudo/',
    outdir='/scratch/as3359/Ta2C_loop/'
    max_seconds = 28800
 /
 &system
    ibrav= 0, 
    celldm(1)= 5.550,
    nat=  4, ntyp= 3,   
    ecutwfc = 70.00,
    ecutrho = 700.00,
    occupations='smearing',
    smearing='m-v', 
    degauss=0.001,
 /
 &electrons
    mixing_mode = 'plain'
    mixing_beta = 0.7
    conv_thr =  1.0d-12
 /
 &ions
    ion_dynamics='bfgs'
 /
 &cell
    cell_dynamics='bfgs', cell_dofree ='2Dxy'
 /
ATOMIC_SPECIES
 Ta 180.94788  Ta.pbesol-spfn-rrkjus_psl.1.0.0.UPF
 C   12.0107   C.pbesol-n-rrkjus_psl.1.0.0.UPF
 H  1.0000     H.pbesol-rrkjus_psl.0.1.UPF
ATOMIC_POSITIONS (alat)
C 0.0000000 0.0000000 0.0000000
Ta 0.5204903 0.3005052 -0.4156024
Ta -0.0000000 0.6010105 0.4260806
H -0.0000000 0.6010105 1.0359681
K_POINTS {automatic}
 12 12 1 0 0 0 
CELL_PARAMETERS { alat }
   1.040980697  -0.000000000   0.000000000
  -0.520490348   0.901515727   0.000000000
   0.000000000   0.000000000  10.000000000
