 &control
    calculation='scf'
    restart_mode='from_scratch',
    prefix='Ta',
    tstress = .true.
    tprnfor = .true.
    pseudo_dir = '/shared/home/as3359/pseudo/',
    outdir='/scratch/as3359/Ta2CH2-VCrelax/'
    max_seconds = 28800
 /
 &system    
    ibrav= 0, 
    celldm(1)= 5.550,
     nat=  5, ntyp= 3,  
    ecutwfc = 70.00,
    ecutrho = 700.00,
    occupations='smearing',
    smearing='m-v', 
    degauss=0.001,
 /
 &electrons
    mixing_mode = 'plain'
    mixing_beta = 0.7
    conv_thr =  1.0d-12
 /
CELL_PARAMETERS (alat)
   0.913236057   0.001112799   0.000000000
  -0.455654280   0.790112319   0.000000000
   0.000000000   0.000000000  10.000000000
ATOMIC_SPECIES
 Ta 180.94788  Ta.pbesol-spfn-rrkjus_psl.1.0.0.UPF
 C   12.0107   C.pbesol-n-rrkjus_psl.1.0.0.UPF
 H    1.000   H.pbesol-rrkjus_psl.0.1.UPF
ATOMIC_POSITIONS (alat)
C             0.0000001167       -0.0000001226       -0.0000001900
Ta            0.3754266417        0.2650435323       -4.3707742073
Ta           -0.3055334394        0.5296197706        4.3707951034
H            -0.3061655752        0.5289520316        8.3419475227
H             0.3760586562        0.2657113882       -8.3419472287
K_POINTS {automatic}
12 12 1 0 0 0
