&DOS
    prefix="Ta"
    outdir="/scratch/as3359/Ta2CO2_bandsdos/"
    fildos="Ta2CO2.dos.dat"
    emin=-9.0
    emax=16.0
/
