&BANDS
    prefix="Ta"
    outdir="/scratch/as3359/Ta2CO2_bandsdos/"
    filband="Ta2CO2.Bandx.dat"
/
