 &control
    calculation='relax'
    restart_mode='from_scratch',
    prefix='Ta',
    tstress = .true.
    tprnfor = .true.
    forc_conv_thr=1.0d-3,
    etot_conv_thr=1.0d-4,
    pseudo_dir = '/shared/home/as3359/pseudo/',
    outdir='/scratch/as3359/Ta3C2OH_loop/'
    max_seconds = 28800
 /
 &system
    ibrav= 0, 
    celldm(1)= 5.900,
    nat=  7, ntyp= 4,   
    ecutwfc = 70.00,
    ecutrho = 300.00,
 /
 &electrons
    mixing_mode = 'plain'
    mixing_beta = 0.7
    conv_thr =  1.0d-12
 /
 &ions
    ion_dynamics='bfgs'
 /
 &cell
    cell_dynamics='bfgs', cell_dofree ='2Dxy'
 /
ATOMIC_SPECIES
 Ta 180.94788  Ta.pbesol-spfn-rrkjus_psl.1.0.0.UPF
 C   12.0107   C.pbesol-n-rrkjus_psl.1.0.0.UPF
 O   15.9994  O.pbesol-n-rrkjus_psl.1.0.0.UPF
ATOMIC_POSITIONS (alat)
Ta 0.0000076 0.5753645 0.7347089
C 0.0000057 0.0000120 1.1001305
Ta 0.4982672 0.2876804 1.5254275
C -0.0000017 0.5753446 1.9811698
Ta -0.0000067 -0.0000138 2.3497244
O -0.0000097 0.5753282 2.7859840
H -0.0000105 0.5753279 3.1137995
K_POINTS {automatic}
 12 12 1 0 0 0 
CELL_PARAMETERS { alat }

