 &control
    calculation='vc-relax'
    restart_mode='from_scratch',
    prefix='Ta',
    tstress = .true.
    tprnfor = .true.
    forc_conv_thr=1.0d-3,
    etot_conv_thr=1.0d-4,
    pseudo_dir = '/shared/home/as3359/pseudo/',
    outdir='/scratch/as3359/Ta3C2OH_loop/'
    max_seconds = 56600
 /
 &system
    ibrav= 0, 
    celldm(1)= 5.900,
    nat=  7, ntyp= 4,   
    ecutwfc =70.00,
    ecutrho = 300.00,
 /
 &electrons
    mixing_mode = 'plain'
    mixing_beta = 0.7
    conv_thr =  1.0d-12
    diagonalization = 'cg'
 /
 &ions
    ion_dynamics='bfgs'
 /
 &cell
    cell_dynamics='bfgs', cell_dofree ='2Dxy'
 /
ATOMIC_SPECIES
 Ta 180.94788  Ta.pbesol-spfn-rrkjus_psl.1.0.0.UPF
 C   12.0107   C.pbesol-n-rrkjus_psl.1.0.0.UPF
 O   15.9994  O.pbesol-n-rrkjus_psl.1.0.0.UPF
 H    1.000   H.pbesol-rrkjus_psl.0.1.UPF
ATOMIC_POSITIONS (alat)
 Ta            0.0000076202        0.5753645261        0.7347088682 1 1 1 
 C             0.0000057425        0.0000119580        1.1001305396 1 1 1 
 Ta            0.4982671617        0.2876804117        1.5254274591 1 1 1 
 C             -0.0000016562        0.5753446197        1.9811697513 1 1 1 
 Ta            -0.0000066843       -0.0000138349        2.3497244033 1 1 1 
 O             -0.0000097359        0.5753282492        2.7859839916 1 1 1 
 H             -0.0000104689        0.5753278703        3.1137994869 1 1 1 
K_POINTS {automatic}
 12 12 1 0 0 0 
CELL_PARAMETERS (alat= 5.900)
 1.040049433  -0.000000962   0.000000000 
 -0.520025553   0.900713953   0.000000000
 0.000000000   0.000000000  7.000000000 
