 &control
    calculation='scf'
    restart_mode='from_scratch',
    prefix='Ta',
    tstress = .true.
    tprnfor = .true.
    forc_conv_thr=1.0d-3,
    etot_conv_thr=1.0d-4,
    pseudo_dir = '/shared/home/as3359/pseudo/',
    outdir='/scratch/as3359/Ta2CO_bandsdos/'
    max_seconds = 56600
 /
 &system
    ibrav= 0, 
    celldm(1)= 5.650,
    nat=  4, ntyp= 3,   
    ecutwfc =150.00,
    ecutrho = 700.00,
    occupations='smearing',
    smearing='m-v', 
    degauss=0.001,
 /
 &electrons
    mixing_mode = 'plain'
    mixing_beta = 0.7
    conv_thr =  1.0d-12
 /
 &ions
    ion_dynamics='bfgs'
 /
ATOMIC_SPECIES
 Ta 180.94788  Ta.pbesol-spfn-rrkjus_psl.1.0.0.UPF
 C   12.0107   C.pbesol-n-rrkjus_psl.1.0.0.UPF
 O   15.9994  O.pbesol-n-rrkjus_psl.1.0.0.UPF
ATOMIC_POSITIONS (alat)
 C             0.0000000000        0.0000000000        0.0000000000
 Ta            0.5237441000        0.2989654000       -0.4007024000
 Ta           -0.0010323000        0.6027030000        0.4306046000
 O             0.5210222000        0.3011869000        0.8013113000
K_POINTS {automatic}
 15 15 1 0 0 0 
CELL_PARAMETERS (alat= 5.650)
 1.047457526  -0.003042052   0.000000000
 -0.525368498   0.905720514   0.000000000
 0.000000000   0.000000000  10.000000000
