&DOS
    prefix="Ta"
    outdir="/scratch/as3359/Ta2CO_bandsdos/"
    fildos="Ta2CO.dos.dat"
    emin=-9.0
    emax=16.0
/
