 &control
    calculation='scf'
    restart_mode='from_scratch',
    prefix='Ta',
    tstress = .true.
    tprnfor = .true.
    forc_conv_thr=1.0d-3,
    etot_conv_thr=1.0d-4,
    pseudo_dir = '/shared/home/as3359/pseudo/',
    outdir='/scratch/as3359/Ta2CH_bandsdos/'
    max_seconds = 56600
 /
 &system
    ibrav= 0, 
    celldm(1)= 5.550,
    nat=  4, ntyp= 3,   
    ecutwfc =150.00,
    ecutrho = 700.00,
   occupations='smearing',
    smearing='m-v', 
    degauss=0.001,
 /
 &electrons
    mixing_mode = 'plain'
    mixing_beta = 0.7
    conv_thr =  1.0d-12
 /
 &ions
    ion_dynamics='bfgs'
 /
ATOMIC_SPECIES
 Ta 180.94788  Ta.pbesol-spfn-rrkjus_psl.1.0.0.UPF
 C   12.0107   C.pbesol-n-rrkjus_psl.1.0.0.UPF
 S   32.065    S.pbesol-nl-kjpaw_psl.1.0.0.UPF
ATOMIC_POSITIONS (alat)
 C             0.0001540745        0.0001294869       -0.0002665010
 Ta            0.5365170241        0.3085633586       -0.3899266576
 Ta            0.0012366323        0.6192060320        0.4285633317
 S             0.5351085692        0.3081437225        0.9859537268
K_POINTS {automatic}
 15 15 1 0 0 0 
CELL_PARAMETERS (alat= 5.550)
 1.070291113  -0.003287788   0.000000000
 -0.533525931   0.930205308   0.000000000
 0.000000000   0.000000000  10.000000000
