&BANDS
    prefix="Ta"
    outdir="/scratch/as3359/Ta2CH_bandsdos/"
    filband="Ta2CH.Bandx.dat"
/
