 &control
    calculation='relax'
    restart_mode='from_scratch',
    prefix='Ta',
    tstress = .true.
    tprnfor = .true.
    forc_conv_thr=1.0d-3,
    etot_conv_thr=1.0d-4,
    pseudo_dir = '/shared/home/as3359/pseudo/',
    outdir='/scratch/as3359/MoS2_loop/'
    max_seconds = 28800
 /
 &system
    ibrav= 0, 
    celldm(1)= 6.072,
    nat=  6, ntyp= 2,   
    ecutwfc = 60.00,
    ecutrho = 300.00,
 /
 &electrons
    mixing_mode = 'plain'
    mixing_beta = 0.7
    conv_thr =  1.0d-12
 /
 &ions
    ion_dynamics='bfgs'
 /
 &cell
    cell_dynamics='bfgs', cell_dofree ='2Dxy'
 /
ATOMIC_SPECIES
 Mo  95.94  Mo.pbesol-spn-kjpaw_psl.1.0.0.UPF
 S   32.065    S.pbesol-nl-kjpaw_psl.1.0.0.UPF
 
ATOMIC_POSITIONS (alat)
Mo 0.0000000 0.0000000 0.9844997
S 0.4887119 0.2819702 1.4701535
S 0.4887135 0.2819635 0.4988906
Mo 0.0000000 0.0000000 3.0155003
S -0.4887135 -0.2819635 3.5011094
S -0.4887119 -0.2819702 2.5298465
K_POINTS {automatic}
 12 12 1 0 0 0 
CELL_PARAMETERS { alat }
   0.977325997  -0.000176330   0.000000000
  -0.488539747   0.846361973   0.000000000
   0.000000000   0.000000000   8.000000000
