 &control
    calculation='vc-relax'
    restart_mode='from_scratch',
    prefix='Ta',
    tstress = .true.
    tprnfor = .true.
    forc_conv_thr=1.0d-3,
    etot_conv_thr=1.0d-4,
    pseudo_dir = '/shared/home/as3359/pseudo/',
    outdir='/scratch/as3359/Ta2CF2_loop/'
    max_seconds = 28800
 /
 &system    
    ibrav= 0, 
    celldm(1)= 5.8997,
    nat=  5, ntyp= 3,    
    ecutwfc = 70.00,
    ecutrho = 700.00,
 /
 &electrons
    mixing_mode = 'plain'
    mixing_beta = 0.7
    conv_thr =  1.0d-12
 /
 &ions
    ion_dynamics='bfgs',
 /
&cell
    cell_dynamics='bfgs', cell_dofree='2Dxy'
 /
CELL_PARAMETERS { alat }
   0.978372012  -0.000000000   0.000000000
  -0.489186005   0.847295017   0.000000000
   0.000000000   0.000000000   6.000000000
ATOMIC_SPECIES
 Ta 180.94788  Ta.pbesol-spfn-rrkjus_psl.1.0.0.UPF
 C   12.0107   C.pbesol-n-rrkjus_psl.1.0.0.UPF
 F   18.9984  F.pbesol-n-rrkjus_psl.1.0.0.UPF
ATOMIC_POSITIONS (alat)
Ta           -0.0000396026        0.5536730805        0.1075567815
C            -0.0073995348       -0.0128155466        0.4858425135
Ta            0.4795126115        0.2768053259        0.8641251796
F            -0.0029686136        0.5490691066        1.3617061881
F             0.4769955395        0.2719620336       -0.3900243627
K_POINTS {automatic}
 12 12 1 0 0 0
