 &control
    calculation='scf'
    restart_mode='restart',
    prefix='Ta2CO',
    tstress = .true.
    tprnfor = .true.
    pseudo_dir = '/shared/home/as3359/pseudo/',
    outdir='/scratch/as3359/Mos2_ct_lat/'
    max_seconds = 7200
 /
 &system
    ibrav= 0, 
    celldm(1)= 5.500,
    nat=  5, ntyp= 3,   
    ecutwfc = 150.00,
    ecutrho = 600.00
 /
 &electrons
    mixing_mode = 'plain'
    mixing_beta = 0.7
    conv_thr =  1.0d-12
 /
 &ions
    ion_dynamics='bfgs'
 /
 &cell
    cell_dynamics='bfgs'
 /
CELL_PARAMETERS (alat)
 1.043499546   0.000813847   0.000000000 
 -0.521745737   0.901379229   0.000000000
 0.000000000   0.000000000  10.000000000 
ATOMIC_SPECIES
 Ta 180.94788  Ta.pbesol-spfn-rrkjus_psl.1.0.0.UPF
 C   12.0107   C.pbesol-n-rrkjus_psl.1.0.0.UPF
 O   15.9994  O.pbesol-n-rrkjus_psl.1.0.0.UPF
ATOMIC_POSITIONS (alat)
 C             -0.1377536000        0.0179990000        0.0193518000  
 Ta            0.3841239000        0.3191886000       -0.4303721000  
 Ta            -0.1376121000        0.6197216000        0.4272316000  
 O             0.3845132000        0.3204022000        0.8049677000  
 O             -0.1374316000        0.0186104000       -0.8211265000  
 K_POINTS {automatic}
 15 15 1 0 0 0 
