 &control
    calculation='relax'
    restart_mode='from_scratch',
    prefix='Ta',
    tstress = .true.
    tprnfor = .true.
    forc_conv_thr=1.0d-3,
    etot_conv_thr=1.0d-4,
    pseudo_dir = '/shared/home/as3359/pseudo/',
    outdir='/scratch/as3359/Ta2CF-VCrelax-5/'
    max_seconds = 28800
 /
 &system
    ibrav= 0, 
    celldm(1)= 5.8997,
    nat=  4, ntyp= 3,   
    ecutwfc = 65.0,
    ecutrho = 600.0,
    occupations='smearing',
    smearing='m-v', 
    degauss=0.001,
 /
 &electrons
    mixing_mode = 'plain'
    mixing_beta = 0.7
    conv_thr =  1.0d-12
    diagonalization = 'cg'
 /
 &ions
    ion_dynamics='bfgs'
 /
ATOMIC_SPECIES
 Ta 180.94788  Ta.pbesol-spfn-rrkjus_psl.1.0.0.UPF
 C   12.0107   C.pbesol-n-rrkjus_psl.1.0.0.UPF
 F   18.9984  F.pbesol-n-rrkjus_psl.1.0.0.UPF
ATOMIC_POSITIONS (alat)
Ta -0.0000000 0.5536245 0.1082836
C 0.0000000 0.0000000 0.5223073
Ta 0.4794529 0.2768123 0.9246507
F -0.0000000 -0.0000000 1.3939964
K_POINTS {automatic}
 12 12 1 0 0 0 
CELL_PARAMETERS { alat }
   0.958905775   0.000000000   0.000000000
  -0.479452887   0.830436762   0.000000000
   0.000000000   0.000000000   6.000000000
