 &control
    calculation='vc-relax'
    restart_mode='from_scratch',
    prefix='Ta',
    tstress = .true.
    tprnfor = .true.
    forc_conv_thr=1.0d-3,
    etot_conv_thr=1.0d-4,
    pseudo_dir = '/shared/home/as3359/pseudo/',
    outdir='/scratch/as3359/Ta2CF-VCrelax-5/'
    max_seconds = 56600
 /
 &system
    ibrav= 0, 
    celldm(1)= 5.8997,
    nat=  4, ntyp= 3,   
    ecutwfc =65.0,
    ecutrho = 600.0,
    occupations='smearing',
    smearing='m-v', 
    degauss=0.005,
 /
 &electrons
    mixing_mode = 'plain'
    mixing_beta = 0.7
    conv_thr =  1.0d-7
    diagonalization = 'cg'
 /
 &ions
    ion_dynamics='bfgs'
 /
 &cell
    cell_dynamics='bfgs', cell_dofree ='2Dxy'
 /
ATOMIC_SPECIES
 Ta 180.94788  Ta.pbesol-spfn-rrkjus_psl.1.0.0.UPF
 C   12.0107   C.pbesol-n-rrkjus_psl.1.0.0.UPF
 F   18.9984  F.pbesol-n-rrkjus_psl.1.0.0.UPF
ATOMIC_POSITIONS (crystal)
 Ta       0.3333333330        0.6666666670        0.0426707701    0   0   1
 C        0.0000000000        0.0000000000        0.0902850154    0   0   1
 Ta       0.6666666670        0.3333333330        0.1419119551   0   0   1
 F        0.0000000000        0.0000000000        0.2166719324   1   1   1
K_POINTS {automatic}
 12 12 1 0 0 0 
CELL_PARAMETERS (alat= 5.8997)
 0.982215553  -0.000000000   0.000000000
 -0.491107776   0.850623622   0.000000000
 0.000000000   0.000000000   6.000000000
